c WARNING: for repeatability, setting FPU to use double precision
d VARIABLES            26911        
d CONSTRAINTS          88914        
c ============================[ Problem Statistics ]=============================
c |                                                                             |
c |  Number of variables:         26911                                         |
c |  Number of clauses:           88914                                         |
c |  Parse time:                   0.02 s                                       |
c |                                                                             |
c ============================[ Search Statistics ]==============================
c | Conflicts |          ORIGINAL         |          LEARNT          | Progress |
c |           |    Vars  Clauses Literals |    Limit  Clauses Lit/Cl |          |
c ===============================================================================
c |       100 |   16718    61720   155478 |    22630      100     12 | 37.877 % |
c |       250 |   16718    61720   155478 |    24893      250     20 | 37.877 % |
c |       475 |   16718    61720   155478 |    27383      475     40 | 37.877 % |
c |       812 |   16718    61720   155478 |    30121      812     42 | 37.877 % |
c |      1318 |   16716    61713   155461 |    33133     1317     44 | 37.884 % |
c |      2077 |   16713    61702   155434 |    36446     2075     52 | 37.895 % |
c |      3216 |   16713    61702   155434 |    40091     3214     59 | 37.895 % |
c |      4924 |   16713    61702   155434 |    44100     4922     66 | 37.895 % |
c |      7486 |   16704    61669   155353 |    48510     7482     75 | 37.929 % |
c |     11330 |   16704    61669   155353 |    53361    11326     74 | 37.929 % |
c |     17096 |   16704    61669   155353 |    58698    17092     71 | 37.929 % |
c |     25745 |   16704    61669   155353 |    64567    25741     71 | 37.929 % |
c |     38719 |   16704    61669   155353 |    71024    38715     75 | 37.929 % |
c |     58180 |   16704    61669   155353 |    78127    58176     70 | 37.929 % |
c |     87372 |   16704    61669   155353 |    85939    87368     64 | 37.929 % |
c |    131161 |   16704    61669   155353 |    94533    47486     55 | 37.929 % |
c |    196845 |   16704    61669   155353 |   103987    26046     37 | 37.929 % |
c |    295371 |   16695    61636   155272 |   114386    31914     32 | 37.962 % |
c |    443160 |   16695    61636   155272 |   125824    75073     44 | 37.962 % |
c ===============================================================================
c restarts              : 1180
c conflicts             : 564016         (6148 /sec)
c decisions             : 822331         (0.00 % random) (8964 /sec)
c propagations          : 403288349      (4396101 /sec)
c conflict literals     : 27001772       (49.86 % deleted)
d RESTARTS             1180
d FAILURES             564016       
d NODES                822331       
d BACKTRACKS           822331       
d PROPAGATIONS         403288349    
d NOGOODSIZE           47.87 
d MEMORY               103.00 
d TIME                 91.7377 

s UNSATISFIABLE
